(set-logic HORN)
(set-info :source |
    Benchmark: C_VC
    Output by Princess (http://www.philipp.ruemmer.org/princess.shtml)
|)
(set-info :status sat)
(declare-fun inv_main19 (Int Int Int Int Int Int) Bool)
(declare-fun inv_main20 (Int Int Int Int Int Int) Bool)
(declare-fun inv_main37 (Int Int Int Int Int Int) Bool)
(declare-fun inv_main4 (Int Int Int Int Int Int) Bool)
(assert (forall ((var0 Int) (var1 Int) (var2 Int) (var3 Int) (var4 Int) (var5 Int)) (inv_main4 var5 var4 var3 var2 var1 var0)))
(assert (forall ((var0 Int) (var1 Int) (var2 Int) (var3 Int) (var4 Int) (var5 Int)) (or (not (and (inv_main20 var5 var4 var3 var2 var1 var0) (or (= var3 0) (= var2 0)))) (inv_main19 var5 var4 var3 var2 var1 var0))))
(assert (forall ((var0 Int) (var1 Int) (var2 Int) (var3 Int) (var4 Int) (var5 Int)) (or (not (inv_main19 var5 var4 var3 var2 var1 var0)) (inv_main37 var5 var4 var3 var2 var1 var0))))
(assert (forall ((var0 Int) (var1 Int) (var2 Int) (var3 Int) (var4 Int) (var5 Int) (var6 Int) (var7 Int) (var8 Int) (var9 Int) (var10 Int) (var11 Int) (var12 Int) (var13 Int) (var14 Int)) (or (not (and (inv_main4 var14 var13 var12 var11 var10 var9) (and (not (= var8 0)) (and (and (and (and (and (and (= var7 var6) (= var5 var4)) (= var3 var12)) (= var2 var11)) (= var1 var10)) (= var0 var9)) (or (and (<= 0 (+ var4 (- 1))) (= var8 1)) (and (not (<= 0 (+ var4 (- 1)))) (= var8 0))))))) (inv_main20 var7 var5 var7 var5 1 0))))
(assert (forall ((var0 Int) (var1 Int) (var2 Int) (var3 Int) (var4 Int) (var5 Int) (var6 Int) (var7 Int) (var8 Int) (var9 Int) (var10 Int) (var11 Int) (var12 Int) (var13 Int) (var14 Int) (var15 Int) (var16 Int) (var17 Int) (var18 Int) (var19 Int) (var20 Int) (var21 Int) (var22 Int) (var23 Int)) (or (not (and (inv_main20 var17 var16 var15 var14 var13 var12) (and (and (and (and (and (and (and (and (and (<= 0 (+ (+ 2 (* (- 1) var18)) (- 1))) (<= 0 (+ (+ 2 (* 1 var18)) (- 1)))) (or (not (<= 0 (+ var18 (- 1)))) (<= 0 (+ var15 (- 1))))) (or (not (<= 0 (+ (* (- 1) var18) (- 1)))) (<= 0 (+ (* (- 1) var15) (- 1))))) (= var15 (+ (* 2 var19) var18))) (= var18 0)) (and (and (and (and (and (<= 0 (+ (+ 2 (* (- 1) var20)) (- 1))) (<= 0 (+ (+ 2 (* 1 var20)) (- 1)))) (or (not (<= 0 (+ var20 (- 1)))) (<= 0 (+ var14 (- 1))))) (or (not (<= 0 (+ (* (- 1) var20) (- 1)))) (<= 0 (+ (* (- 1) var14) (- 1))))) (= var14 (+ (* 2 var21) var20))) (= var20 0))) (and (not (= var15 0)) (not (= var14 0)))) (and (and (and (and (and (= var11 var17) (= var10 var16)) (and (and (and (and (<= 0 (+ (+ 2 (* (- 1) (+ var15 (* (- 2) var22)))) (- 1))) (<= 0 (+ (+ 2 (* 1 (+ var15 (* (- 2) var22)))) (- 1)))) (or (not (<= 0 (+ (+ var15 (* (- 2) var22)) (- 1)))) (<= 0 (+ var15 (- 1))))) (or (not (<= 0 (+ (* (- 1) (+ var15 (* (- 2) var22))) (- 1)))) (<= 0 (+ (* (- 1) var15) (- 1))))) (= var9 var22))) (= var8 var14)) (= var7 var13)) (= var6 var12))) (and (and (and (and (and (= var5 var11) (= var4 var10)) (= var3 var9)) (and (and (and (and (<= 0 (+ (+ 2 (* (- 1) (+ var8 (* (- 2) var23)))) (- 1))) (<= 0 (+ (+ 2 (* 1 (+ var8 (* (- 2) var23)))) (- 1)))) (or (not (<= 0 (+ (+ var8 (* (- 2) var23)) (- 1)))) (<= 0 (+ var8 (- 1))))) (or (not (<= 0 (+ (* (- 1) (+ var8 (* (- 2) var23))) (- 1)))) (<= 0 (+ (* (- 1) var8) (- 1))))) (= var2 var23))) (= var1 var7)) (= var0 var6))))) (inv_main20 var5 var4 var3 var2 (* 4 var1) var0))))
(assert (forall ((var0 Int) (var1 Int) (var2 Int) (var3 Int) (var4 Int) (var5 Int) (var6 Int) (var7 Int) (var8 Int) (var9 Int) (var10 Int) (var11 Int) (var12 Int) (var13 Int) (var14 Int) (var15 Int) (var16 Int) (var17 Int) (var18 Int) (var19 Int)) (or (not (and (inv_main20 var11 var10 var9 var8 var7 var6) (and (and (and (and (and (and (and (and (<= 0 (+ (+ 2 (* (- 1) var12)) (- 1))) (<= 0 (+ (+ 2 (* 1 var12)) (- 1)))) (or (not (<= 0 (+ var12 (- 1)))) (<= 0 (+ var9 (- 1))))) (or (not (<= 0 (+ (* (- 1) var12) (- 1)))) (<= 0 (+ (* (- 1) var9) (- 1))))) (= var9 (+ (* 2 var13) var12))) (= var12 1)) (and (and (and (and (and (<= 0 (+ (+ 2 (* (- 1) var14)) (- 1))) (<= 0 (+ (+ 2 (* 1 var14)) (- 1)))) (or (not (<= 0 (+ var14 (- 1)))) (<= 0 (+ var8 (- 1))))) (or (not (<= 0 (+ (* (- 1) var14) (- 1)))) (<= 0 (+ (* (- 1) var8) (- 1))))) (= var8 (+ (* 2 var15) var14))) (= var14 0))) (and (or (not (or (not (and (and (and (and (<= 0 (+ (+ 2 (* (- 1) var16)) (- 1))) (<= 0 (+ (+ 2 (* 1 var16)) (- 1)))) (or (not (<= 0 (+ var16 (- 1)))) (<= 0 (+ var9 (- 1))))) (or (not (<= 0 (+ (* (- 1) var16) (- 1)))) (<= 0 (+ (* (- 1) var9) (- 1))))) (= var9 (+ (* 2 var17) var16)))) (= var16 0))) (not (or (not (and (and (and (and (<= 0 (+ (+ 2 (* (- 1) var18)) (- 1))) (<= 0 (+ (+ 2 (* 1 var18)) (- 1)))) (or (not (<= 0 (+ var18 (- 1)))) (<= 0 (+ var8 (- 1))))) (or (not (<= 0 (+ (* (- 1) var18) (- 1)))) (<= 0 (+ (* (- 1) var8) (- 1))))) (= var8 (+ (* 2 var19) var18)))) (= var18 0)))) (and (not (= var9 0)) (not (= var8 0))))) (and (and (and (and (and (= var5 var11) (= var4 var10)) (= var3 (+ var9 (- 1)))) (= var2 var8)) (= var1 var7)) (= var0 (+ var6 (* var8 var7))))))) (inv_main20 var5 var4 var3 var2 var1 var0))))
(assert (forall ((var0 Int) (var1 Int) (var2 Int) (var3 Int) (var4 Int) (var5 Int) (var6 Int) (var7 Int) (var8 Int) (var9 Int) (var10 Int) (var11 Int) (var12 Int) (var13 Int) (var14 Int) (var15 Int) (var16 Int) (var17 Int) (var18 Int) (var19 Int) (var20 Int) (var21 Int) (var22 Int) (var23 Int)) (or (not (and (inv_main20 var11 var10 var9 var8 var7 var6) (and (and (and (and (and (and (and (and (<= 0 (+ (+ 2 (* (- 1) var12)) (- 1))) (<= 0 (+ (+ 2 (* 1 var12)) (- 1)))) (or (not (<= 0 (+ var12 (- 1)))) (<= 0 (+ var9 (- 1))))) (or (not (<= 0 (+ (* (- 1) var12) (- 1)))) (<= 0 (+ (* (- 1) var9) (- 1))))) (= var9 (+ (* 2 var13) var12))) (= var12 0)) (and (and (and (and (and (<= 0 (+ (+ 2 (* (- 1) var14)) (- 1))) (<= 0 (+ (+ 2 (* 1 var14)) (- 1)))) (or (not (<= 0 (+ var14 (- 1)))) (<= 0 (+ var8 (- 1))))) (or (not (<= 0 (+ (* (- 1) var14) (- 1)))) (<= 0 (+ (* (- 1) var8) (- 1))))) (= var8 (+ (* 2 var15) var14))) (= var14 1))) (and (or (not (or (not (and (and (and (and (<= 0 (+ (+ 2 (* (- 1) var16)) (- 1))) (<= 0 (+ (+ 2 (* 1 var16)) (- 1)))) (or (not (<= 0 (+ var16 (- 1)))) (<= 0 (+ var9 (- 1))))) (or (not (<= 0 (+ (* (- 1) var16) (- 1)))) (<= 0 (+ (* (- 1) var9) (- 1))))) (= var9 (+ (* 2 var17) var16)))) (= var16 1))) (not (or (not (and (and (and (and (<= 0 (+ (+ 2 (* (- 1) var18)) (- 1))) (<= 0 (+ (+ 2 (* 1 var18)) (- 1)))) (or (not (<= 0 (+ var18 (- 1)))) (<= 0 (+ var8 (- 1))))) (or (not (<= 0 (+ (* (- 1) var18) (- 1)))) (<= 0 (+ (* (- 1) var8) (- 1))))) (= var8 (+ (* 2 var19) var18)))) (= var18 0)))) (and (or (not (or (not (and (and (and (and (<= 0 (+ (+ 2 (* (- 1) var20)) (- 1))) (<= 0 (+ (+ 2 (* 1 var20)) (- 1)))) (or (not (<= 0 (+ var20 (- 1)))) (<= 0 (+ var9 (- 1))))) (or (not (<= 0 (+ (* (- 1) var20) (- 1)))) (<= 0 (+ (* (- 1) var9) (- 1))))) (= var9 (+ (* 2 var21) var20)))) (= var20 0))) (not (or (not (and (and (and (and (<= 0 (+ (+ 2 (* (- 1) var22)) (- 1))) (<= 0 (+ (+ 2 (* 1 var22)) (- 1)))) (or (not (<= 0 (+ var22 (- 1)))) (<= 0 (+ var8 (- 1))))) (or (not (<= 0 (+ (* (- 1) var22) (- 1)))) (<= 0 (+ (* (- 1) var8) (- 1))))) (= var8 (+ (* 2 var23) var22)))) (= var22 0)))) (and (not (= var9 0)) (not (= var8 0)))))) (and (and (and (and (and (= var5 var11) (= var4 var10)) (= var3 var9)) (= var2 (+ var8 (- 1)))) (= var1 var7)) (= var0 (+ var6 (* var9 var7))))))) (inv_main20 var5 var4 var3 var2 var1 var0))))
(assert (forall ((var0 Int) (var1 Int) (var2 Int) (var3 Int) (var4 Int) (var5 Int) (var6 Int) (var7 Int) (var8 Int) (var9 Int) (var10 Int) (var11 Int) (var12 Int) (var13 Int) (var14 Int) (var15 Int) (var16 Int) (var17 Int) (var18 Int) (var19 Int) (var20 Int) (var21 Int) (var22 Int) (var23 Int)) (or (not (and (inv_main20 var11 var10 var9 var8 var7 var6) (and (and (or (not (or (not (and (and (and (and (<= 0 (+ (+ 2 (* (- 1) var12)) (- 1))) (<= 0 (+ (+ 2 (* 1 var12)) (- 1)))) (or (not (<= 0 (+ var12 (- 1)))) (<= 0 (+ var9 (- 1))))) (or (not (<= 0 (+ (* (- 1) var12) (- 1)))) (<= 0 (+ (* (- 1) var9) (- 1))))) (= var9 (+ (* 2 var13) var12)))) (= var12 0))) (not (or (not (and (and (and (and (<= 0 (+ (+ 2 (* (- 1) var14)) (- 1))) (<= 0 (+ (+ 2 (* 1 var14)) (- 1)))) (or (not (<= 0 (+ var14 (- 1)))) (<= 0 (+ var8 (- 1))))) (or (not (<= 0 (+ (* (- 1) var14) (- 1)))) (<= 0 (+ (* (- 1) var8) (- 1))))) (= var8 (+ (* 2 var15) var14)))) (= var14 1)))) (and (or (not (or (not (and (and (and (and (<= 0 (+ (+ 2 (* (- 1) var16)) (- 1))) (<= 0 (+ (+ 2 (* 1 var16)) (- 1)))) (or (not (<= 0 (+ var16 (- 1)))) (<= 0 (+ var9 (- 1))))) (or (not (<= 0 (+ (* (- 1) var16) (- 1)))) (<= 0 (+ (* (- 1) var9) (- 1))))) (= var9 (+ (* 2 var17) var16)))) (= var16 1))) (not (or (not (and (and (and (and (<= 0 (+ (+ 2 (* (- 1) var18)) (- 1))) (<= 0 (+ (+ 2 (* 1 var18)) (- 1)))) (or (not (<= 0 (+ var18 (- 1)))) (<= 0 (+ var8 (- 1))))) (or (not (<= 0 (+ (* (- 1) var18) (- 1)))) (<= 0 (+ (* (- 1) var8) (- 1))))) (= var8 (+ (* 2 var19) var18)))) (= var18 0)))) (and (or (not (or (not (and (and (and (and (<= 0 (+ (+ 2 (* (- 1) var20)) (- 1))) (<= 0 (+ (+ 2 (* 1 var20)) (- 1)))) (or (not (<= 0 (+ var20 (- 1)))) (<= 0 (+ var9 (- 1))))) (or (not (<= 0 (+ (* (- 1) var20) (- 1)))) (<= 0 (+ (* (- 1) var9) (- 1))))) (= var9 (+ (* 2 var21) var20)))) (= var20 0))) (not (or (not (and (and (and (and (<= 0 (+ (+ 2 (* (- 1) var22)) (- 1))) (<= 0 (+ (+ 2 (* 1 var22)) (- 1)))) (or (not (<= 0 (+ var22 (- 1)))) (<= 0 (+ var8 (- 1))))) (or (not (<= 0 (+ (* (- 1) var22) (- 1)))) (<= 0 (+ (* (- 1) var8) (- 1))))) (= var8 (+ (* 2 var23) var22)))) (= var22 0)))) (and (not (= var9 0)) (not (= var8 0)))))) (and (and (and (and (and (= var5 var11) (= var4 var10)) (= var3 (+ var9 (- 1)))) (= var2 (+ var8 (- 1)))) (= var1 var7)) (= var0 (+ var6 (* (+ (+ (+ var9 (- 1)) (+ var8 (- 1))) 1) var7))))))) (inv_main20 var5 var4 var3 var2 var1 var0))))
(assert (forall ((var0 Int) (var1 Int) (var2 Int) (var3 Int) (var4 Int) (var5 Int)) (not (and (inv_main20 var5 var4 var3 var2 var1 var0) (not (= (+ var0 (* (* var3 var2) var1)) (* var5 var4)))))))
(assert (forall ((var0 Int) (var1 Int) (var2 Int) (var3 Int) (var4 Int) (var5 Int)) (not (and (inv_main19 var5 var4 var3 var2 var1 var0) (not (= var0 (* var5 var4)))))))
(assert (forall ((var0 Int) (var1 Int) (var2 Int) (var3 Int) (var4 Int) (var5 Int)) (not (and (inv_main37 var5 var4 var3 var2 var1 var0) (not (= (* var3 var2) 0))))))
(check-sat)
